peakDumbCharging = 33300; 
Machine = anon_enum(16); 
machineSpeed = [3700,3700,3700,3700,3700,3700,3700,3700,3700,3700,3700,3700,3700,3700,3700,3700]; 
machineLoad = [3700,3700,3700,3700,3700,3700,3700,3700,3700,3700,3700,3700,3700,3700,3700,3700]; 
Car = anon_enum(40); 
demandCar = [23240,15680,240,120,4680,5000,9560,1400,3160,19760,10280,30840,6280,4640,4640,3640,7360,7800,14280,7880,7720,8000,4960,2880,26960,4720,11320,6520,4640,8000,2520,6480,22440,10200,3040,8840,10440,11440,11720,17560]; 
arrivalCar = [71,69,68,68,67,66,64,62,60,59,59,58,57,56,55,55,54,54,54,54,53,52,51,50,50,49,49,47,47,46,46,43,42,41,40,38,38,37,36,36]; 
departureCar = [79,75,69,69,72,68,68,63,62,66,63,69,61,59,60,58,59,62,61,57,57,56,56,52,61,52,55,50,51,49,48,49,51,48,43,44,43,43,46,44]; 
